c colouring generated by benchmark framework
p edge 125 736
v 1 2
v 2 2
v 3 0
v 4 4
v 5 3
v 6 0
v 7 3
v 8 0
v 9 5
v 10 0
v 11 5
v 12 0
v 13 5
v 14 4
v 15 5
v 16 2
v 17 4
v 18 5
v 19 2
v 20 1
v 21 4
v 22 3
v 23 3
v 24 3
v 25 4
v 26 5
v 27 5
v 28 0
v 29 4
v 30 4
v 31 3
v 32 4
v 33 2
v 34 3
v 35 4
v 36 0
v 37 1
v 38 5
v 39 4
v 40 3
v 41 5
v 42 1
v 43 3
v 44 5
v 45 4
v 46 1
v 47 5
v 48 4
v 49 4
v 50 0
v 51 2
v 52 2
v 53 3
v 54 0
v 55 1
v 56 1
v 57 1
v 58 3
v 59 4
v 60 5
v 61 1
v 62 5
v 63 1
v 64 5
v 65 2
v 66 3
v 67 2
v 68 5
v 69 3
v 70 1
v 71 4
v 72 2
v 73 1
v 74 2
v 75 4
v 76 5
v 77 0
v 78 0
v 79 1
v 80 0
v 81 5
v 82 4
v 83 2
v 84 2
v 85 5
v 86 1
v 87 3
v 88 2
v 89 3
v 90 0
v 91 4
v 92 0
v 93 0
v 94 2
v 95 3
v 96 2
v 97 4
v 98 1
v 99 0
v 100 1
v 101 1
v 102 5
v 103 1
v 104 1
v 105 3
v 106 3
v 107 3
v 108 4
v 109 1
v 110 1
v 111 0
v 112 1
v 113 5
v 114 3
v 115 2
v 116 1
v 117 3
v 118 5
v 119 0
v 120 1
v 121 1
v 122 0
v 123 4
v 124 4
v 125 2
